(declare-fun v3 () (_ BitVec 6))
(declare-fun v5 () (_ BitVec 7))
(declare-fun v12 () (_ BitVec 15))
(assert
(let (($e3 (_ bv255 9)))
(let (($e8 (_ bv255 8)))
(let (($e116 (concat $e3 v3)))
(let (($e119 (bvand        $e116         v12   )))
(let (($e227 (concat $e8   v5)))
(let (($e228 (bvand $e227 $e119)))
(let (($e1973 (   extract      $e116)))
              (ite        $e1973  $e228 $e119)
                                                                                                                                                                                                                                                                                                                                                                                                                                                                                                                                                                                                                                                                                                                                                                                                                                                                                                                                                                                                                                                                                                                                                                                                                                                                                                                                                                                                                                                                                                                                                                                                                                                                                                      )                                                                                                                                                                                                                                                                                                                                                                                                                                                                                                                                                                                                                                                                                                                                                                                                                                                                                                                                                                                                                                                                                                                                                                                                                                                                                                                                                                                                                                                                                                                                                                                                                                                                                                                                                                                                                ))                                                                                                           )  )                                                                                         )    )  )
